instances/small/instance12_20.txt
20 12
63 7
72 9
64 8
40 5
48 6
35 5
15 3
54 9
81 9
21 3
28 4
30 6
54 6
63 7
36 6
45 9
54 9
32 4
21 3
54 9
4 6 8 10 11
1 8
2 5 7
1 9
3 6 9 10
4 6 7 10 11
3 8 9 11
0
3 9 10 11
0
0
0
